10
0 196 194 190 289 355 178 293 498 212 
196 0 365 120 176 304 492 394 211 249 
194 365 0 186 307 336 417 171 369 474 
190 120 186 0 246 439 200 380 330 137 
289 176 307 246 0 125 427 231 215 216 
355 304 336 439 125 0 487 294 410 485 
178 492 417 200 427 487 0 406 275 106 
293 394 171 380 231 294 406 0 482 480 
498 211 369 330 215 410 275 482 0 499 
212 249 474 137 216 485 106 480 499 0 
